c User generated cnf file
p cnf 13 39
11 -11 1 0 
4 -3 12 0 
3 -4 13 0 
11 5 -13 0 
-10 1 2 0 
-9 5 5 0 
-4 10 10 0 
-2 13 11 0 
4 -12 8 0 
-11 10 3 0 
-4 12 2 0 
-6 2 11 0 
1 -1 11 0 
6 -5 10 0 
5 -4 9 0 
5 11 -6 0 
5 1 -6 0 
11 11 -13 0 
-11 11 3 0 
11 2 -9 0 
-13 5 13 0 
9 -6 7 0 
3 5 -2 0 
-4 13 5 0 
8 -6 13 0 
9 9 -11 0 
1 10 -8 0 
-3 6 8 0 
-8 6 2 0 
9 -9 6 0 
12 -7 12 0 
9 -2 9 0 
11 -12 9 0 
6 9 -7 0 
2 -13 2 0 
-5 1 2 0 
13 -8 1 0 
12 3 -2 0 
13 7 -7 0 
